min: c;

c = 3.59474633127573 * u1_t7_h4 + 3.22868516277264 * u1_t7_h5 + 3.55735801937265 * u1_t5_h6 + 3.55735801937265 * u1_t7_h6 + 4.51247764404031 * u1_t5_h7 + 4.51247764404031 * u1_t7_h7 + 4.51247764404031 * u1_t9_h7 + 5.07528794555158 * u1_t5_h8 + 5.07528794555158 * u1_t7_h8 + 5.07528794555158 * u1_t9_h8 + 5.07528794555158 * u1_t10_h8 + 5.08664599616555 * u1_t5_h9 + 5.08664599616555 * u1_t7_h9 + 5.08664599616555 * u1_t9_h9 + 5.08664599616555 * u1_t10_h9 + 4.98406635040752 * u1_t5_h10 + 4.98406635040752 * u1_t7_h10 + 4.98406635040752 * u1_t9_h10 + 4.98406635040752 * u1_t10_h10 + 3.97992170937529 * u1_t5_h11 + 3.97992170937529 * u1_t9_h11 + 3.97992170937529 * u1_t10_h11 + 6.66284936232622 * u1_t4_h12 + 6.66284936232622 * u1_t5_h12 + 6.66284936232622 * u1_t8_h12 + 6.66284936232622 * u1_t9_h12 + 6.66284936232622 * u1_t10_h12 + 4.3077220006697 * u1_t4_h13 + 4.3077220006697 * u1_t8_h13 + 4.3077220006697 * u1_t9_h13 + 4.3077220006697 * u1_t10_h13 + 5.71061201231653 * u1_t4_h14 + 5.71061201231653 * u1_t8_h14 + 5.71061201231653 * u1_t9_h14 + 5.71061201231653 * u1_t10_h14 + 5.99181895184607 * u1_t4_h15 + 5.99181895184607 * u1_t8_h15 + 6.02134074801763 * u1_t4_h16 + 6.02134074801763 * u1_t8_h16 + 6.46494978402456 * u1_t4_h17 + 6.46494978402456 * u1_t8_h17 + 6.24199204023312 * u1_t2_h18 + 6.24199204023312 * u1_t4_h18 + 6.24199204023312 * u1_t6_h18 + 6.24199204023312 * u1_t8_h18 + 5.35107114356414 * u1_t2_h19 + 5.35107114356414 * u1_t3_h19 + 5.35107114356414 * u1_t4_h19 + 5.35107114356414 * u1_t6_h19 + 5.3804913317916 * u1_t1_h20 + 5.3804913317916 * u1_t2_h20 + 5.3804913317916 * u1_t3_h20 + 5.3804913317916 * u1_t4_h20 + 5.3804913317916 * u1_t6_h20 + 5.70183596309591 * u1_t1_h21 + 5.70183596309591 * u1_t2_h21 + 5.70183596309591 * u1_t3_h21 + 5.1286987466126 * u1_t1_h22 + 5.1286987466126 * u1_t2_h22 + 5.47637569410557 * u1_t1_h23 + 5.47637569410557 * u1_t2_h23;
0 <= u1_t1_h20 <= 1;
0 <= u1_t1_h21 <= 1;
0 <= u1_t1_h22 <= 1;
0 <= u1_t1_h23 <= 1;
u1_t1_h20 + u1_t1_h21 + u1_t1_h22 + u1_t1_h23 = 1;
0 <= u1_t2_h18 <= 1;
0 <= u1_t2_h19 <= 1;
0 <= u1_t2_h20 <= 1;
0 <= u1_t2_h21 <= 1;
0 <= u1_t2_h22 <= 1;
0 <= u1_t2_h23 <= 1;
u1_t2_h18 + u1_t2_h19 + u1_t2_h20 + u1_t2_h21 + u1_t2_h22 + u1_t2_h23 = 2;
0 <= u1_t3_h19 <= 1;
0 <= u1_t3_h20 <= 1;
0 <= u1_t3_h21 <= 1;
u1_t3_h19 + u1_t3_h20 + u1_t3_h21 = 1;
0 <= u1_t4_h12 <= 1;
0 <= u1_t4_h13 <= 1;
0 <= u1_t4_h14 <= 1;
0 <= u1_t4_h15 <= 1;
0 <= u1_t4_h16 <= 1;
0 <= u1_t4_h17 <= 1;
0 <= u1_t4_h18 <= 1;
0 <= u1_t4_h19 <= 1;
0 <= u1_t4_h20 <= 1;
u1_t4_h12 + u1_t4_h13 + u1_t4_h14 + u1_t4_h15 + u1_t4_h16 + u1_t4_h17 + u1_t4_h18 + u1_t4_h19 + u1_t4_h20 = 3;
0 <= u1_t5_h6 <= 1;
0 <= u1_t5_h7 <= 1;
0 <= u1_t5_h8 <= 1;
0 <= u1_t5_h9 <= 1;
0 <= u1_t5_h10 <= 1;
0 <= u1_t5_h11 <= 1;
0 <= u1_t5_h12 <= 1;
u1_t5_h6 + u1_t5_h7 + u1_t5_h8 + u1_t5_h9 + u1_t5_h10 + u1_t5_h11 + u1_t5_h12 = 3;
0 <= u1_t6_h18 <= 1;
0 <= u1_t6_h19 <= 1;
0 <= u1_t6_h20 <= 1;
u1_t6_h18 + u1_t6_h19 + u1_t6_h20 = 2;
0 <= u1_t7_h4 <= 1;
0 <= u1_t7_h5 <= 1;
0 <= u1_t7_h6 <= 1;
0 <= u1_t7_h7 <= 1;
0 <= u1_t7_h8 <= 1;
0 <= u1_t7_h9 <= 1;
0 <= u1_t7_h10 <= 1;
u1_t7_h4 + u1_t7_h5 + u1_t7_h6 + u1_t7_h7 + u1_t7_h8 + u1_t7_h9 + u1_t7_h10 = 2;
0 <= u1_t8_h12 <= 1;
0 <= u1_t8_h13 <= 1;
0 <= u1_t8_h14 <= 1;
0 <= u1_t8_h15 <= 1;
0 <= u1_t8_h16 <= 1;
0 <= u1_t8_h17 <= 1;
0 <= u1_t8_h18 <= 1;
u1_t8_h12 + u1_t8_h13 + u1_t8_h14 + u1_t8_h15 + u1_t8_h16 + u1_t8_h17 + u1_t8_h18 = 2;
0 <= u1_t9_h7 <= 1;
0 <= u1_t9_h8 <= 1;
0 <= u1_t9_h9 <= 1;
0 <= u1_t9_h10 <= 1;
0 <= u1_t9_h11 <= 1;
0 <= u1_t9_h12 <= 1;
0 <= u1_t9_h13 <= 1;
0 <= u1_t9_h14 <= 1;
u1_t9_h7 + u1_t9_h8 + u1_t9_h9 + u1_t9_h10 + u1_t9_h11 + u1_t9_h12 + u1_t9_h13 + u1_t9_h14 = 3;
0 <= u1_t10_h8 <= 1;
0 <= u1_t10_h9 <= 1;
0 <= u1_t10_h10 <= 1;
0 <= u1_t10_h11 <= 1;
0 <= u1_t10_h12 <= 1;
0 <= u1_t10_h13 <= 1;
0 <= u1_t10_h14 <= 1;
u1_t10_h8 + u1_t10_h9 + u1_t10_h10 + u1_t10_h11 + u1_t10_h12 + u1_t10_h13 + u1_t10_h14 = 3;
